10790.0
1,12,20,26,63,64,72,103,120,169,203,205,225,232,233,271,273,288,292,294,302,307,343,384,391,396,475,476,483,490,498,508,538,555,574,583,584,605,606,637,655,659,662,665,698,707,724,753,833,849,880,883,909,926,927,946,959,960
